c User generated cnf file
p cnf 6 27
6 -5 5 0 
6 -5 3 0 
-2 6 3 0 
-4 3 5 0 
1 -5 4 0 
-2 1 3 0 
6 3 -3 0 
3 -6 4 0 
6 4 -5 0 
-1 1 4 0 
1 -6 6 0 
2 -2 4 0 
-2 6 5 0 
-5 3 4 0 
5 -5 2 0 
3 5 -5 0 
4 1 -6 0 
2 -1 6 0 
-1 6 5 0 
1 -5 4 0 
6 -3 6 0 
6 -5 6 0 
3 -5 5 0 
1 3 -1 0 
-5 3 1 0 
1 2 -5 0 
-3 4 1 0 
